c Random generated cnf formula, satisfiable: false
p cnf 10 50
10 4 -7 0
-7 2 10 0
7 -6 1 0
3 8 9 0
9 -10 -7 0
5 3 -7 0
-7 8 6 0
-7 10 -4 0
5 7 4 0
-2 -9 5 0
-6 4 -1 0
-9 -2 -7 0
6 1 8 0
-1 8 -2 0
-3 -4 1 0
8 -10 -3 0
5 -8 4 0
6 -10 7 0
3 -8 1 0
-5 9 8 0
8 -6 -10 0
6 -1 4 0
5 -8 -2 0
7 -8 -3 0
2 -4 -9 0
-1 2 -4 0
-1 6 5 0
9 -5 -3 0
2 9 10 0
-5 1 -8 0
-7 9 -3 0
-1 -7 5 0
-8 10 -1 0
-3 -4 5 0
9 -7 1 0
5 -4 -7 0
-8 3 -9 0
7 10 -9 0
-1 -4 -9 0
7 -8 -4 0
3 -10 -5 0
4 6 -5 0
-10 2 -5 0
-5 -3 -7 0
7 -5 1 0
-9 6 -8 0
-4 -10 -9 0
9 -4 -1 0
1 -2 5 0
-7 -5 9 0
